(set-logic QF_LRA)
(declare-fun X0 () Real )
(declare-fun Y0 () Real )
(declare-fun X1 () Real )
(declare-fun Y1 () Real )
(declare-fun X2 () Real )
(declare-fun Y2 () Real )
(declare-fun X3 () Real )
(declare-fun Y3 () Real )
(declare-fun X4 () Real )
(declare-fun Y4 () Real )
(declare-fun X5 () Real )
(declare-fun Y5 () Real )
(declare-fun X6 () Real )
(declare-fun Y6 () Real )
(declare-fun X7 () Real )
(declare-fun Y7 () Real )
(declare-fun X8 () Real )
(declare-fun Y8 () Real )
(declare-fun Z () Real )
(assert ( and  
( or ( <= ( + X0 77 ) X1 )  ( <= ( + X1 76 ) X0 )  ( <= ( + Y0 50 ) Y1 )  ( <= ( + Y1 65 ) Y0 )  )
( or ( <= ( + X0 77 ) X2 )  ( <= ( + X2 83 ) X0 )  ( <= ( + Y0 50 ) Y2 )  ( <= ( + Y2 94 ) Y0 )  )
( or ( <= ( + X0 77 ) X3 )  ( <= ( + X3 24 ) X0 )  ( <= ( + Y0 50 ) Y3 )  ( <= ( + Y3 79 ) Y0 )  )
( or ( <= ( + X0 77 ) X4 )  ( <= ( + X4 6 ) X0 )  ( <= ( + Y0 50 ) Y4 )  ( <= ( + Y4 37 ) Y0 )  )
( or ( <= ( + X0 77 ) X5 )  ( <= ( + X5 25 ) X0 )  ( <= ( + Y0 50 ) Y5 )  ( <= ( + Y5 92 ) Y0 )  )
( or ( <= ( + X0 77 ) X6 )  ( <= ( + X6 73 ) X0 )  ( <= ( + Y0 50 ) Y6 )  ( <= ( + Y6 79 ) Y0 )  )
( or ( <= ( + X0 77 ) X7 )  ( <= ( + X7 47 ) X0 )  ( <= ( + Y0 50 ) Y7 )  ( <= ( + Y7 48 ) Y0 )  )
( or ( <= ( + X0 77 ) X8 )  ( <= ( + X8 44 ) X0 )  ( <= ( + Y0 50 ) Y8 )  ( <= ( + Y8 12 ) Y0 )  )
( or ( <= ( + X1 76 ) X2 )  ( <= ( + X2 83 ) X1 )  ( <= ( + Y1 65 ) Y2 )  ( <= ( + Y2 94 ) Y1 )  )
( or ( <= ( + X1 76 ) X3 )  ( <= ( + X3 24 ) X1 )  ( <= ( + Y1 65 ) Y3 )  ( <= ( + Y3 79 ) Y1 )  )
( or ( <= ( + X1 76 ) X4 )  ( <= ( + X4 6 ) X1 )  ( <= ( + Y1 65 ) Y4 )  ( <= ( + Y4 37 ) Y1 )  )
( or ( <= ( + X1 76 ) X5 )  ( <= ( + X5 25 ) X1 )  ( <= ( + Y1 65 ) Y5 )  ( <= ( + Y5 92 ) Y1 )  )
( or ( <= ( + X1 76 ) X6 )  ( <= ( + X6 73 ) X1 )  ( <= ( + Y1 65 ) Y6 )  ( <= ( + Y6 79 ) Y1 )  )
( or ( <= ( + X1 76 ) X7 )  ( <= ( + X7 47 ) X1 )  ( <= ( + Y1 65 ) Y7 )  ( <= ( + Y7 48 ) Y1 )  )
( or ( <= ( + X1 76 ) X8 )  ( <= ( + X8 44 ) X1 )  ( <= ( + Y1 65 ) Y8 )  ( <= ( + Y8 12 ) Y1 )  )
( or ( <= ( + X2 83 ) X3 )  ( <= ( + X3 24 ) X2 )  ( <= ( + Y2 94 ) Y3 )  ( <= ( + Y3 79 ) Y2 )  )
( or ( <= ( + X2 83 ) X4 )  ( <= ( + X4 6 ) X2 )  ( <= ( + Y2 94 ) Y4 )  ( <= ( + Y4 37 ) Y2 )  )
( or ( <= ( + X2 83 ) X5 )  ( <= ( + X5 25 ) X2 )  ( <= ( + Y2 94 ) Y5 )  ( <= ( + Y5 92 ) Y2 )  )
( or ( <= ( + X2 83 ) X6 )  ( <= ( + X6 73 ) X2 )  ( <= ( + Y2 94 ) Y6 )  ( <= ( + Y6 79 ) Y2 )  )
( or ( <= ( + X2 83 ) X7 )  ( <= ( + X7 47 ) X2 )  ( <= ( + Y2 94 ) Y7 )  ( <= ( + Y7 48 ) Y2 )  )
( or ( <= ( + X2 83 ) X8 )  ( <= ( + X8 44 ) X2 )  ( <= ( + Y2 94 ) Y8 )  ( <= ( + Y8 12 ) Y2 )  )
( or ( <= ( + X3 24 ) X4 )  ( <= ( + X4 6 ) X3 )  ( <= ( + Y3 79 ) Y4 )  ( <= ( + Y4 37 ) Y3 )  )
( or ( <= ( + X3 24 ) X5 )  ( <= ( + X5 25 ) X3 )  ( <= ( + Y3 79 ) Y5 )  ( <= ( + Y5 92 ) Y3 )  )
( or ( <= ( + X3 24 ) X6 )  ( <= ( + X6 73 ) X3 )  ( <= ( + Y3 79 ) Y6 )  ( <= ( + Y6 79 ) Y3 )  )
( or ( <= ( + X3 24 ) X7 )  ( <= ( + X7 47 ) X3 )  ( <= ( + Y3 79 ) Y7 )  ( <= ( + Y7 48 ) Y3 )  )
( or ( <= ( + X3 24 ) X8 )  ( <= ( + X8 44 ) X3 )  ( <= ( + Y3 79 ) Y8 )  ( <= ( + Y8 12 ) Y3 )  )
( or ( <= ( + X4 6 ) X5 )  ( <= ( + X5 25 ) X4 )  ( <= ( + Y4 37 ) Y5 )  ( <= ( + Y5 92 ) Y4 )  )
( or ( <= ( + X4 6 ) X6 )  ( <= ( + X6 73 ) X4 )  ( <= ( + Y4 37 ) Y6 )  ( <= ( + Y6 79 ) Y4 )  )
( or ( <= ( + X4 6 ) X7 )  ( <= ( + X7 47 ) X4 )  ( <= ( + Y4 37 ) Y7 )  ( <= ( + Y7 48 ) Y4 )  )
( or ( <= ( + X4 6 ) X8 )  ( <= ( + X8 44 ) X4 )  ( <= ( + Y4 37 ) Y8 )  ( <= ( + Y8 12 ) Y4 )  )
( or ( <= ( + X5 25 ) X6 )  ( <= ( + X6 73 ) X5 )  ( <= ( + Y5 92 ) Y6 )  ( <= ( + Y6 79 ) Y5 )  )
( or ( <= ( + X5 25 ) X7 )  ( <= ( + X7 47 ) X5 )  ( <= ( + Y5 92 ) Y7 )  ( <= ( + Y7 48 ) Y5 )  )
( or ( <= ( + X5 25 ) X8 )  ( <= ( + X8 44 ) X5 )  ( <= ( + Y5 92 ) Y8 )  ( <= ( + Y8 12 ) Y5 )  )
( or ( <= ( + X6 73 ) X7 )  ( <= ( + X7 47 ) X6 )  ( <= ( + Y6 79 ) Y7 )  ( <= ( + Y7 48 ) Y6 )  )
( or ( <= ( + X6 73 ) X8 )  ( <= ( + X8 44 ) X6 )  ( <= ( + Y6 79 ) Y8 )  ( <= ( + Y8 12 ) Y6 )  )
( or ( <= ( + X7 47 ) X8 )  ( <= ( + X8 44 ) X7 )  ( <= ( + Y7 48 ) Y8 )  ( <= ( + Y8 12 ) Y7 )  )
( >= X0 0)
( <= ( + X0 77) Z)
( >= Y0 0)
( <= ( + Y0 50 ) 100)
( >= X1 0)
( <= ( + X1 76) Z)
( >= Y1 0)
( <= ( + Y1 65 ) 100)
( >= X2 0)
( <= ( + X2 83) Z)
( >= Y2 0)
( <= ( + Y2 94 ) 100)
( >= X3 0)
( <= ( + X3 24) Z)
( >= Y3 0)
( <= ( + Y3 79 ) 100)
( >= X4 0)
( <= ( + X4 6) Z)
( >= Y4 0)
( <= ( + Y4 37 ) 100)
( >= X5 0)
( <= ( + X5 25) Z)
( >= Y5 0)
( <= ( + Y5 92 ) 100)
( >= X6 0)
( <= ( + X6 73) Z)
( >= Y6 0)
( <= ( + Y6 79 ) 100)
( >= X7 0)
( <= ( + X7 47) Z)
( >= Y7 0)
( <= ( + Y7 48 ) 100)
( >= X8 0)
( <= ( + X8 44) Z)
( >= Y8 0)
( <= ( + Y8 12 ) 100)
) )
(minimize Z)
(check-sat)
